computational_data/real_data/logs/wdbc_trial_012_lex.log
Welcome to the CBC MILP Solver 
Version: 2.10.12 
Build Date: Aug 20 2024 

command line - /opt/homebrew/bin/cbc computational_data/real_data/lp/wdbc_trial_012_lex.lp seconds 10.0 solve solu computational_data/real_data/solutions/wdbc_trial_012_lex.sol (default strategy 1)
 CoinLpIO::readLp(): Maximization problem reformulated as minimization
Coin0009I Switching back to maximization to get correct duals etc
seconds was changed from 1e+100 to 10
Continuous objective value is 7.56283 - 0.00 seconds
Cgl0003I 0 fixed, 0 tightened bounds, 39 strengthened rows, 0 substitutions
Cgl0003I 0 fixed, 0 tightened bounds, 44 strengthened rows, 0 substitutions
Cgl0003I 0 fixed, 0 tightened bounds, 41 strengthened rows, 0 substitutions
Cgl0003I 0 fixed, 0 tightened bounds, 29 strengthened rows, 0 substitutions
Cgl0003I 0 fixed, 0 tightened bounds, 18 strengthened rows, 0 substitutions
Cgl0003I 0 fixed, 0 tightened bounds, 13 strengthened rows, 0 substitutions
Cgl0003I 0 fixed, 0 tightened bounds, 7 strengthened rows, 0 substitutions
Cgl0003I 0 fixed, 0 tightened bounds, 2 strengthened rows, 0 substitutions
Cgl0003I 0 fixed, 0 tightened bounds, 2 strengthened rows, 0 substitutions
Cgl0004I processed model has 63 rows, 30 columns (30 integer (30 of which binary)) and 360 elements
Cbc0038I Initial state - 0 integers unsatisfied sum - 0
Cbc0038I Solution found of 7.48672
Cbc0038I Before mini branch and bound, 30 integers at bound fixed and 0 continuous
Cbc0038I Mini branch and bound did not improve solution (0.00 seconds)
Cbc0038I After 0.00 seconds - Feasibility pump exiting with objective of 7.48672 - took 0.00 seconds
Cbc0012I Integer solution of 7.486724 found by feasibility pump after 0 iterations and 0 nodes (0.00 seconds)
Cbc0001I Search completed - best objective 7.486724, took 0 iterations and 0 nodes (0.00 seconds)
Cbc0035I Maximum depth 0, 0 variables fixed on reduced cost
Cuts at root node changed objective from 7.48672 to 7.48672
Probing was tried 0 times and created 0 cuts of which 0 were active after adding rounds of cuts (0.000 seconds)
Gomory was tried 0 times and created 0 cuts of which 0 were active after adding rounds of cuts (0.000 seconds)
Knapsack was tried 0 times and created 0 cuts of which 0 were active after adding rounds of cuts (0.000 seconds)
Clique was tried 0 times and created 0 cuts of which 0 were active after adding rounds of cuts (0.000 seconds)
MixedIntegerRounding2 was tried 0 times and created 0 cuts of which 0 were active after adding rounds of cuts (0.000 seconds)
FlowCover was tried 0 times and created 0 cuts of which 0 were active after adding rounds of cuts (0.000 seconds)
TwoMirCuts was tried 0 times and created 0 cuts of which 0 were active after adding rounds of cuts (0.000 seconds)
ZeroHalf was tried 0 times and created 0 cuts of which 0 were active after adding rounds of cuts (0.000 seconds)

Result - Optimal solution found

Objective value:                7.48672400
Enumerated nodes:               0
Total iterations:               0
Time (CPU seconds):             0.01
Time (Wallclock seconds):       0.01

Total time (CPU seconds):       0.01   (Wallclock seconds):       0.01

